Timesteps: 1
s UNSATISFIABLE
real 0.07
user 0.01
sys 0.00
Timesteps: 2
s UNSATISFIABLE
real 0.10
user 0.01
sys 0.00
Timesteps: 3
s UNSATISFIABLE
real 0.09
user 0.03
sys 0.00
Timesteps: 4
s UNSATISFIABLE
real 0.11
user 0.06
sys 0.00
Timesteps: 5
s UNSATISFIABLE
real 0.21
user 0.11
sys 0.00
Timesteps: 6
s UNSATISFIABLE
real 0.30
user 0.22
sys 0.00
Timesteps: 7
s UNSATISFIABLE
real 0.33
user 0.25
sys 0.00
Timesteps: 8
s UNSATISFIABLE
real 0.62
user 0.52
sys 0.01
Timesteps: 9
s UNSATISFIABLE
real 0.74
user 0.65
sys 0.00
Timesteps: 10
s UNSATISFIABLE
real 1.73
user 1.60
sys 0.02
Timesteps: 11
s UNSATISFIABLE
real 2.28
user 2.15
sys 0.01
Timesteps: 12
s UNSATISFIABLE
real 3.01
user 2.85
sys 0.01
Timesteps: 13
s UNSATISFIABLE
real 3.20
user 3.03
sys 0.01
Timesteps: 14
s UNSATISFIABLE
real 5.72
user 5.54
sys 0.01
Timesteps: 15
s UNSATISFIABLE
real 7.27
user 7.06
sys 0.02
Timesteps: 16
s UNSATISFIABLE
real 7.63
user 7.35
sys 0.03
Timesteps: 17
s UNSATISFIABLE
real 7.49
user 7.24
sys 0.04
Timesteps: 18
s UNSATISFIABLE
real 8.58
user 8.35
sys 0.02
Timesteps: 19
s UNSATISFIABLE
real 9.02
user 8.76
sys 0.02
Timesteps: 20
s UNSATISFIABLE
real 10.01
user 9.73
sys 0.03
Timesteps: 21
s UNSATISFIABLE
real 11.29
user 10.98
sys 0.05
Timesteps: 22
s UNSATISFIABLE
real 12.69
user 12.35
sys 0.05
Timesteps: 23
s UNSATISFIABLE
real 13.80
user 13.47
sys 0.05
Timesteps: 24
s UNSATISFIABLE
real 12.58
user 12.22
sys 0.06
Timesteps: 25
s UNSATISFIABLE
real 14.73
user 14.23
sys 0.05
Timesteps: 26
s UNSATISFIABLE
real 20.51
user 20.09
sys 0.05
Timesteps: 27
s UNSATISFIABLE
real 20.21
user 19.80
sys 0.06
Timesteps: 28
s UNSATISFIABLE
real 27.53
user 27.06
sys 0.08
Timesteps: 29
s UNSATISFIABLE
real 30.15
user 29.65
sys 0.09
Timesteps: 30
s UNSATISFIABLE
real 31.65
user 31.13
sys 0.09
Timesteps: 31
s UNSATISFIABLE
real 36.83
user 36.25
sys 0.11
Timesteps: 32
s UNSATISFIABLE
real 30.54
user 30.01
sys 0.09
Timesteps: 33
s UNSATISFIABLE
real 38.67
user 38.08
sys 0.12
Timesteps: 34
s UNSATISFIABLE
real 58.34
user 57.06
sys 0.13
Timesteps: 35
s UNSATISFIABLE
real 78.16
user 76.74
sys 0.15
Timesteps: 36
s UNSATISFIABLE
real 76.66
user 75.24
sys 0.16
Timesteps: 37
s UNSATISFIABLE
real 56.83
user 55.56
sys 0.15
Timesteps: 38
s UNSATISFIABLE
real 112.35
user 110.68
sys 0.22
Timesteps: 39
s UNSATISFIABLE
real 131.10
user 129.24
sys 0.23
Timesteps: 40
s UNSATISFIABLE
real 143.91
user 141.98
sys 0.24
Timesteps: 41
s UNSATISFIABLE
real 146.57
user 144.62
sys 0.23
Timesteps: 42
s UNSATISFIABLE
real 157.19
user 155.12
sys 0.31
Timesteps: 43
s UNSATISFIABLE
real 176.48
user 174.27
sys 0.28
Timesteps: 44
s UNSATISFIABLE
real 184.00
user 181.70
sys 0.31
Timesteps: 45
s UNSATISFIABLE
real 200.98
user 198.50
sys 0.37
Timesteps: 46
s UNSATISFIABLE
real 174.62
user 172.41
sys 0.31
Timesteps: 47
s UNSATISFIABLE
real 187.39
user 185.87
sys 0.35
Timesteps: 48
s UNSATISFIABLE
real 183.02
user 181.42
sys 0.32
Timesteps: 49
s UNSATISFIABLE
real 236.43
user 234.67
sys 0.35
Timesteps: 50
s UNSATISFIABLE
real 271.12
user 269.26
sys 0.38
Timesteps: 51
s UNSATISFIABLE
real 245.07
user 243.28
sys 0.38
Timesteps: 52
s UNSATISFIABLE
real 319.76
user 317.62
sys 0.43
Timesteps: 53
